Version identifier: 20.1.0.0 | 2020-11-10 | 9bedb6d68
Tried aggregator 2 times.
MIP Presolve eliminated 1738 rows and 983 columns.
MIP Presolve modified 3438 coefficients.
Aggregator did 185 substitutions.
Reduced MIP has 1483 rows, 1239 columns, and 4721 nonzeros.
Reduced MIP has 347 binaries, 892 generals, 0 SOSs, and 0 indicators.
Presolve time = 0.03 sec. (7.68 ticks)
Found incumbent of value 60.000000 after 0.04 sec. (13.12 ticks)
Probing fixed 40 vars, tightened 347 bounds.
Probing time = 0.00 sec. (1.67 ticks)
Tried aggregator 1 time.
Detecting symmetries...
MIP Presolve eliminated 600 rows and 40 columns.
MIP Presolve modified 83 coefficients.
Reduced MIP has 883 rows, 1199 columns, and 2881 nonzeros.
Reduced MIP has 492 binaries, 707 generals, 0 SOSs, and 0 indicators.
Presolve time = 0.01 sec. (3.54 ticks)
Probing time = 0.00 sec. (0.24 ticks)
Clique table members: 41.
MIP emphasis: balance optimality and feasibility.
MIP search method: dynamic search.
Parallel mode: deterministic, using up to 24 threads.
Root relaxation solution time = 0.01 sec. (2.63 ticks)

        Nodes                                         Cuts/
   Node  Left     Objective  IInf  Best Integer    Best Bound    ItCnt     Gap

*     0+    0                           60.0000        0.0000           100.00%
*     0+    0                           27.0000        0.0000           100.00%
      0     0        0.0000    56       27.0000        0.0000      255  100.00%
      0     0        1.0000    61       27.0000     Cuts: 151      475   96.30%
*     0+    0                           15.0000        1.0000            93.33%
      0     0        1.0000   164       15.0000      Cuts: 72      609   93.33%
*     0+    0                           12.0000        1.0000            91.67%
      0     0        1.0741   242       12.0000      Cuts: 17      708   91.05%
      0     0        1.1538   364       12.0000     Cuts: 133      887   90.38%
      0     0        1.1667   284       12.0000     Cuts: 103      964   90.28%
*     0+    0                            8.0000        1.1667            85.42%
      0     0        cutoff              8.0000        8.0000     1013    0.00%
Elapsed time = 0.21 sec. (97.79 ticks, tree = 0.01 MB, solutions = 5)

Cover cuts applied:  12
Implied bound cuts applied:  43
Flow cuts applied:  28
Mixed integer rounding cuts applied:  16
Zero-half cuts applied:  125
Lift and project cuts applied:  1
Gomory fractional cuts applied:  5

Root node processing (before b&c):
  Real time             =    0.21 sec. (97.94 ticks)
Parallel b&c, 24 threads:
  Real time             =    0.00 sec. (0.00 ticks)
  Sync time (average)   =    0.00 sec.
  Wait time (average)   =    0.00 sec.
                          ------------
Total (root+branch&cut) =    0.21 sec. (97.94 ticks)

Solution status = Optimal
Solution LB = 8
Solution UB = 8
Runtime = 0.214504 seconds
	Command being timed: "/home/min/git_repos/CS598MEBProject/CNT-ILP/build/cnt -s 2 ./output/k6_n40/simC_c1_k6_n40_u2_s3_del04.input-left.cnp"
	User time (seconds): 1.81
	System time (seconds): 0.08
	Percent of CPU this job got: 724%
	Elapsed (wall clock) time (h:mm:ss or m:ss): 0:00.26
	Average shared text size (kbytes): 0
	Average unshared data size (kbytes): 0
	Average stack size (kbytes): 0
	Average total size (kbytes): 0
	Maximum resident set size (kbytes): 96140
	Average resident set size (kbytes): 0
	Major (requiring I/O) page faults: 0
	Minor (reclaiming a frame) page faults: 20931
	Voluntary context switches: 5702
	Involuntary context switches: 145
	Swaps: 0
	File system inputs: 0
	File system outputs: 16
	Socket messages sent: 0
	Socket messages received: 0
	Signals delivered: 0
	Page size (bytes): 4096
	Exit status: 0
